168
0 133 104 74 102 72 83 10 90 1 
159 114 100 116 108 134 36 17 33 43 
143 162 64 25 88 132 139 118 52 154 
47 158 137 84 27 165 50 58 49 76 
68 41 129 93 29 54 65 40 70 164 
78 113 22 145 95 124 163 21 122 109 
28 20 6 161 48 44 144 37 62 101 
31 117 147 120 153 5 131 55 106 4 
8 61 85 80 92 148 151 24 2 89 
63 130 82 138 167 46 123 98 157 96 
39 75 105 32 3 53 26 9 142 121 
110 126 59 115 56 152 38 87 51 107 
12 97 156 140 125 66 13 135 136 73 
14 155 128 67 79 127 150 57 103 111 
35 71 149 60 30 23 16 69 146 160 
34 77 81 11 112 15 42 99 86 18 
45 94 141 7 91 19 166 119 
